<number of tasks>
50

<cycle time>
1000

<order strength>
0.195


<task times>
1 161
2 120
3 223
4 180
5 117
6 57
7 154
8 153
9 83
10 196
11 127
12 244
13 168
14 149
15 72
16 281
17 116
18 57
19 200
20 230
21 195
22 187
23 206
24 229
25 307
26 35
27 117
28 155
29 160
30 242
31 140
32 273
33 176
34 180
35 59
36 146
37 204
38 189
39 321
40 195
41 89
42 62
43 215
44 102
45 67
46 191
47 209
48 81
49 101
50 190

<precedence relations>
1,28
2,11
3,10
4,8
6,9
6,12
8,28
9,28
10,14
11,15
12,13
12,16
12,17
12,18
13,28
14,20
15,19
18,21
19,23
20,27
21,22
21,24
21,25
21,26
22,28
23,29
23,30
23,31
24,32
24,47
25,33
26,34
28,35
28,36
28,37
28,38
28,39
28,40
29,42
30,43
31,41
32,48
33,44
36,49
39,48
41,45
42,46
43,47
44,50

<end>
